25
25
1
3
3600
482 492 707 873 1023 1167 1408 1410 1722 1953 2053 2054 2060 2194 2216 2341 2432 2511 2565 2582 2930 2948 2950 2956 2976 
29 7 13 19 5 22 29 10 35 21 22 21 39 18 39 14 13 32 28 35 31 26 28 32 15 
